NAME: Li_22
COMMENT: 14597.18
TYPE: CVRP
DIMENSION: 601
CAPACITY: 900
DISTANCE: 1000
EDGE_WEIGHT_TYPE: FUNCTION
EDGE_WEIGHT_FORMAT: EUC_2D
NODE_COORD_TYPE: TWOD_COORDS
NODE_COORD_SECTION
1 30.0000 0.0000
2 29.8357 3.1359
3 29.3444 6.2374
4 28.5317 9.2705
5 27.4064 12.2021
6 25.9808 15.0000
7 24.2705 17.6336
8 22.2943 20.0739
9 20.0739 22.2943
10 17.6336 24.2705
11 15.0000 25.9808
12 12.2021 27.4064
13 9.2705 28.5317
14 6.2374 29.3444
15 3.1359 29.8357
16 0.0000 30.0000
17 -3.1359 29.8357
18 -6.2374 29.3444
19 -9.2705 28.5317
20 -12.2021 27.4064
21 -15.0000 25.9808
22 -17.6336 24.2705
23 -20.0739 22.2943
24 -22.2943 20.0739
25 -24.2705 17.6336
26 -25.9808 15.0000
27 -27.4064 12.2021
28 -28.5317 9.2705
29 -29.3444 6.2374
30 -29.8357 3.1359
31 -30.0000 0.0000
32 -29.8357 -3.1359
33 -29.3444 -6.2374
34 -28.5317 -9.2705
35 -27.4064 -12.2021
36 -25.9808 -15.0000
37 -24.2705 -17.6336
38 -22.2943 -20.0739
39 -20.0739 -22.2943
40 -17.6336 -24.2705
41 -15.0000 -25.9808
42 -12.2021 -27.4064
43 -9.2705 -28.5317
44 -6.2374 -29.3444
45 -3.1359 -29.8357
46 -0.0000 -30.0000
47 3.1359 -29.8357
48 6.2374 -29.3444
49 9.2705 -28.5317
50 12.2021 -27.4064
51 15.0000 -25.9808
52 17.6336 -24.2705
53 20.0739 -22.2943
54 22.2943 -20.0739
55 24.2705 -17.6336
56 25.9808 -15.0000
57 27.4064 -12.2021
58 28.5317 -9.2705
59 29.3444 -6.2374
60 29.8357 -3.1359
61 60.0000 0.0000
62 59.6713 6.2717
63 58.6889 12.4747
64 57.0634 18.5410
65 54.8127 24.4042
66 51.9615 30.0000
67 48.5410 35.2671
68 44.5887 40.1478
69 40.1478 44.5887
70 35.2671 48.5410
71 30.0000 51.9615
72 24.4042 54.8127
73 18.5410 57.0634
74 12.4747 58.6889
75 6.2717 59.6713
76 0.0000 60.0000
77 -6.2717 59.6713
78 -12.4747 58.6889
79 -18.5410 57.0634
80 -24.4042 54.8127
81 -30.0000 51.9615
82 -35.2671 48.5410
83 -40.1478 44.5887
84 -44.5887 40.1478
85 -48.5410 35.2671
86 -51.9615 30.0000
87 -54.8127 24.4042
88 -57.0634 18.5410
89 -58.6889 12.4747
90 -59.6713 6.2717
91 -60.0000 0.0000
92 -59.6713 -6.2717
93 -58.6889 -12.4747
94 -57.0634 -18.5410
95 -54.8127 -24.4042
96 -51.9615 -30.0000
97 -48.5410 -35.2671
98 -44.5887 -40.1478
99 -40.1478 -44.5887
100 -35.2671 -48.5410
101 -30.0000 -51.9615
102 -24.4042 -54.8127
103 -18.5410 -57.0634
104 -12.4747 -58.6889
105 -6.2717 -59.6713
106 -0.0000 -60.0000
107 6.2717 -59.6713
108 12.4747 -58.6889
109 18.5410 -57.0634
110 24.4042 -54.8127
111 30.0000 -51.9615
112 35.2671 -48.5410
113 40.1478 -44.5887
114 44.5887 -40.1478
115 48.5410 -35.2671
116 51.9615 -30.0000
117 54.8127 -24.4042
118 57.0634 -18.5410
119 58.6889 -12.4747
120 59.6713 -6.2717
121 90.0000 0.0000
122 89.5070 9.4076
123 88.0333 18.7121
124 85.5951 27.8115
125 82.2191 36.6063
126 77.9423 45.0000
127 72.8115 52.9007
128 66.8830 60.2218
129 60.2218 66.8830
130 52.9007 72.8115
131 45.0000 77.9423
132 36.6063 82.2191
133 27.8115 85.5951
134 18.7121 88.0333
135 9.4076 89.5070
136 0.0000 90.0000
137 -9.4076 89.5070
138 -18.7121 88.0333
139 -27.8115 85.5951
140 -36.6063 82.2191
141 -45.0000 77.9423
142 -52.9007 72.8115
143 -60.2218 66.8830
144 -66.8830 60.2218
145 -72.8115 52.9007
146 -77.9423 45.0000
147 -82.2191 36.6063
148 -85.5951 27.8115
149 -88.0333 18.7121
150 -89.5070 9.4076
151 -90.0000 0.0000
152 -89.5070 -9.4076
153 -88.0333 -18.7121
154 -85.5951 -27.8115
155 -82.2191 -36.6063
156 -77.9423 -45.0000
157 -72.8115 -52.9007
158 -66.8830 -60.2218
159 -60.2218 -66.8830
160 -52.9007 -72.8115
161 -45.0000 -77.9423
162 -36.6063 -82.2191
163 -27.8115 -85.5951
164 -18.7121 -88.0333
165 -9.4076 -89.5070
166 -0.0000 -90.0000
167 9.4076 -89.5070
168 18.7121 -88.0333
169 27.8115 -85.5951
170 36.6063 -82.2191
171 45.0000 -77.9423
172 52.9007 -72.8115
173 60.2218 -66.8830
174 66.8830 -60.2218
175 72.8115 -52.9007
176 77.9423 -45.0000
177 82.2191 -36.6063
178 85.5951 -27.8115
179 88.0333 -18.7121
180 89.5070 -9.4076
181 120.0000 0.0000
182 119.3426 12.5434
183 117.3777 24.9494
184 114.1268 37.0820
185 109.6255 48.8084
186 103.9230 60.0000
187 97.0820 70.5342
188 89.1774 80.2957
189 80.2957 89.1774
190 70.5342 97.0820
191 60.0000 103.9230
192 48.8084 109.6255
193 37.0820 114.1268
194 24.9494 117.3777
195 12.5434 119.3426
196 0.0000 120.0000
197 -12.5434 119.3426
198 -24.9494 117.3777
199 -37.0820 114.1268
200 -48.8084 109.6255
201 -60.0000 103.9230
202 -70.5342 97.0820
203 -80.2957 89.1774
204 -89.1774 80.2957
205 -97.0820 70.5342
206 -103.9230 60.0000
207 -109.6255 48.8084
208 -114.1268 37.0820
209 -117.3777 24.9494
210 -119.3426 12.5434
211 -120.0000 0.0000
212 -119.3426 -12.5434
213 -117.3777 -24.9494
214 -114.1268 -37.0820
215 -109.6255 -48.8084
216 -103.9230 -60.0000
217 -97.0820 -70.5342
218 -89.1774 -80.2957
219 -80.2957 -89.1774
220 -70.5342 -97.0820
221 -60.0000 -103.9230
222 -48.8084 -109.6255
223 -37.0820 -114.1268
224 -24.9494 -117.3777
225 -12.5434 -119.3426
226 -0.0000 -120.0000
227 12.5434 -119.3426
228 24.9494 -117.3777
229 37.0820 -114.1268
230 48.8084 -109.6255
231 60.0000 -103.9230
232 70.5342 -97.0820
233 80.2957 -89.1774
234 89.1774 -80.2957
235 97.0820 -70.5342
236 103.9230 -60.0000
237 109.6255 -48.8084
238 114.1268 -37.0820
239 117.3777 -24.9494
240 119.3426 -12.5434
241 150.0000 0.0000
242 149.1783 15.6793
243 146.7221 31.1868
244 142.6585 46.3525
245 137.0318 61.0105
246 129.9038 75.0000
247 121.3525 88.1678
248 111.4717 100.3696
249 100.3696 111.4717
250 88.1678 121.3525
251 75.0000 129.9038
252 61.0105 137.0318
253 46.3525 142.6585
254 31.1868 146.7221
255 15.6793 149.1783
256 0.0000 150.0000
257 -15.6793 149.1783
258 -31.1868 146.7221
259 -46.3525 142.6585
260 -61.0105 137.0318
261 -75.0000 129.9038
262 -88.1678 121.3525
263 -100.3696 111.4717
264 -111.4717 100.3696
265 -121.3525 88.1678
266 -129.9038 75.0000
267 -137.0318 61.0105
268 -142.6585 46.3525
269 -146.7221 31.1868
270 -149.1783 15.6793
271 -150.0000 0.0000
272 -149.1783 -15.6793
273 -146.7221 -31.1868
274 -142.6585 -46.3525
275 -137.0318 -61.0105
276 -129.9038 -75.0000
277 -121.3525 -88.1678
278 -111.4717 -100.3696
279 -100.3696 -111.4717
280 -88.1678 -121.3525
281 -75.0000 -129.9038
282 -61.0105 -137.0318
283 -46.3525 -142.6585
284 -31.1868 -146.7221
285 -15.6793 -149.1783
286 -0.0000 -150.0000
287 15.6793 -149.1783
288 31.1868 -146.7221
289 46.3525 -142.6585
290 61.0105 -137.0318
291 75.0000 -129.9038
292 88.1678 -121.3525
293 100.3696 -111.4717
294 111.4717 -100.3696
295 121.3525 -88.1678
296 129.9038 -75.0000
297 137.0318 -61.0105
298 142.6585 -46.3525
299 146.7221 -31.1868
300 149.1783 -15.6793
301 180.0000 0.0000
302 179.0139 18.8151
303 176.0666 37.4241
304 171.1902 55.6231
305 164.4382 73.2126
306 155.8846 90.0000
307 145.6231 105.8013
308 133.7661 120.4435
309 120.4435 133.7661
310 105.8013 145.6231
311 90.0000 155.8846
312 73.2126 164.4382
313 55.6231 171.1902
314 37.4241 176.0666
315 18.8151 179.0139
316 0.0000 180.0000
317 -18.8151 179.0139
318 -37.4241 176.0666
319 -55.6231 171.1902
320 -73.2126 164.4382
321 -90.0000 155.8846
322 -105.8013 145.6231
323 -120.4435 133.7661
324 -133.7661 120.4435
325 -145.6231 105.8013
326 -155.8846 90.0000
327 -164.4382 73.2126
328 -171.1902 55.6231
329 -176.0666 37.4241
330 -179.0139 18.8151
331 -180.0000 0.0000
332 -179.0139 -18.8151
333 -176.0666 -37.4241
334 -171.1902 -55.6231
335 -164.4382 -73.2126
336 -155.8846 -90.0000
337 -145.6231 -105.8013
338 -133.7661 -120.4435
339 -120.4435 -133.7661
340 -105.8013 -145.6231
341 -90.0000 -155.8846
342 -73.2126 -164.4382
343 -55.6231 -171.1902
344 -37.4241 -176.0666
345 -18.8151 -179.0139
346 -0.0000 -180.0000
347 18.8151 -179.0139
348 37.4241 -176.0666
349 55.6231 -171.1902
350 73.2126 -164.4382
351 90.0000 -155.8846
352 105.8013 -145.6231
353 120.4435 -133.7661
354 133.7661 -120.4435
355 145.6231 -105.8013
356 155.8846 -90.0000
357 164.4382 -73.2126
358 171.1902 -55.6231
359 176.0666 -37.4241
360 179.0139 -18.8151
361 210.0000 0.0000
362 208.8496 21.9510
363 205.4110 43.6615
364 199.7219 64.8936
365 191.8445 85.4147
366 181.8653 105.0000
367 169.8936 123.4349
368 156.0604 140.5174
369 140.5174 156.0604
370 123.4349 169.8936
371 105.0000 181.8653
372 85.4147 191.8445
373 64.8936 199.7219
374 43.6615 205.4110
375 21.9510 208.8496
376 0.0000 210.0000
377 -21.9510 208.8496
378 -43.6615 205.4110
379 -64.8936 199.7219
380 -85.4147 191.8445
381 -105.0000 181.8653
382 -123.4349 169.8936
383 -140.5174 156.0604
384 -156.0604 140.5174
385 -169.8936 123.4349
386 -181.8653 105.0000
387 -191.8445 85.4147
388 -199.7219 64.8936
389 -205.4110 43.6615
390 -208.8496 21.9510
391 -210.0000 0.0000
392 -208.8496 -21.9510
393 -205.4110 -43.6615
394 -199.7219 -64.8936
395 -191.8445 -85.4147
396 -181.8653 -105.0000
397 -169.8936 -123.4349
398 -156.0604 -140.5174
399 -140.5174 -156.0604
400 -123.4349 -169.8936
401 -105.0000 -181.8653
402 -85.4147 -191.8445
403 -64.8936 -199.7219
404 -43.6615 -205.4110
405 -21.9510 -208.8496
406 -0.0000 -210.0000
407 21.9510 -208.8496
408 43.6615 -205.4110
409 64.8936 -199.7219
410 85.4147 -191.8445
411 105.0000 -181.8653
412 123.4349 -169.8936
413 140.5174 -156.0604
414 156.0604 -140.5174
415 169.8936 -123.4349
416 181.8653 -105.0000
417 191.8445 -85.4147
418 199.7219 -64.8936
419 205.4110 -43.6615
420 208.8496 -21.9510
421 240.0000 0.0000
422 238.6853 25.0868
423 234.7554 49.8988
424 228.2536 74.1641
425 219.2509 97.6168
426 207.8461 120.0000
427 194.1641 141.0685
428 178.3548 160.5913
429 160.5913 178.3548
430 141.0685 194.1641
431 120.0000 207.8461
432 97.6168 219.2509
433 74.1641 228.2536
434 49.8988 234.7554
435 25.0868 238.6853
436 0.0000 240.0000
437 -25.0868 238.6853
438 -49.8988 234.7554
439 -74.1641 228.2536
440 -97.6168 219.2509
441 -120.0000 207.8461
442 -141.0685 194.1641
443 -160.5913 178.3548
444 -178.3548 160.5913
445 -194.1641 141.0685
446 -207.8461 120.0000
447 -219.2509 97.6168
448 -228.2536 74.1641
449 -234.7554 49.8988
450 -238.6853 25.0868
451 -240.0000 0.0000
452 -238.6853 -25.0868
453 -234.7554 -49.8988
454 -228.2536 -74.1641
455 -219.2509 -97.6168
456 -207.8461 -120.0000
457 -194.1641 -141.0685
458 -178.3548 -160.5913
459 -160.5913 -178.3548
460 -141.0685 -194.1641
461 -120.0000 -207.8461
462 -97.6168 -219.2509
463 -74.1641 -228.2536
464 -49.8988 -234.7554
465 -25.0868 -238.6853
466 -0.0000 -240.0000
467 25.0868 -238.6853
468 49.8988 -234.7554
469 74.1641 -228.2536
470 97.6168 -219.2509
471 120.0000 -207.8461
472 141.0685 -194.1641
473 160.5913 -178.3548
474 178.3548 -160.5913
475 194.1641 -141.0685
476 207.8461 -120.0000
477 219.2509 -97.6168
478 228.2536 -74.1641
479 234.7554 -49.8988
480 238.6853 -25.0868
481 270.0000 0.0000
482 268.5209 28.2227
483 264.0999 56.1362
484 256.7853 83.4346
485 246.6573 109.8189
486 233.8269 135.0000
487 218.4346 158.7020
488 200.6491 180.6653
489 180.6653 200.6491
490 158.7020 218.4346
491 135.0000 233.8269
492 109.8189 246.6573
493 83.4346 256.7853
494 56.1362 264.0999
495 28.2227 268.5209
496 0.0000 270.0000
497 -28.2227 268.5209
498 -56.1362 264.0999
499 -83.4346 256.7853
500 -109.8189 246.6573
501 -135.0000 233.8269
502 -158.7020 218.4346
503 -180.6653 200.6491
504 -200.6491 180.6653
505 -218.4346 158.7020
506 -233.8269 135.0000
507 -246.6573 109.8189
508 -256.7853 83.4346
509 -264.0999 56.1362
510 -268.5209 28.2227
511 -270.0000 0.0000
512 -268.5209 -28.2227
513 -264.0999 -56.1362
514 -256.7853 -83.4346
515 -246.6573 -109.8189
516 -233.8269 -135.0000
517 -218.4346 -158.7020
518 -200.6491 -180.6653
519 -180.6653 -200.6491
520 -158.7020 -218.4346
521 -135.0000 -233.8269
522 -109.8189 -246.6573
523 -83.4346 -256.7853
524 -56.1362 -264.0999
525 -28.2227 -268.5209
526 -0.0000 -270.0000
527 28.2227 -268.5209
528 56.1362 -264.0999
529 83.4346 -256.7853
530 109.8189 -246.6573
531 135.0000 -233.8269
532 158.7020 -218.4346
533 180.6653 -200.6491
534 200.6491 -180.6653
535 218.4346 -158.7020
536 233.8269 -135.0000
537 246.6573 -109.8189
538 256.7853 -83.4346
539 264.0999 -56.1362
540 268.5209 -28.2227
541 300.0000 0.0000
542 298.3566 31.3585
543 293.4443 62.3735
544 285.3170 92.7051
545 274.0636 122.0210
546 259.8076 150.0000
547 242.7051 176.3356
548 222.9434 200.7392
549 200.7392 222.9434
550 176.3356 242.7051
551 150.0000 259.8076
552 122.0210 274.0636
553 92.7051 285.3170
554 62.3735 293.4443
555 31.3585 298.3566
556 0.0000 300.0000
557 -31.3585 298.3566
558 -62.3735 293.4443
559 -92.7051 285.3170
560 -122.0210 274.0636
561 -150.0000 259.8076
562 -176.3356 242.7051
563 -200.7392 222.9434
564 -222.9434 200.7392
565 -242.7051 176.3356
566 -259.8076 150.0000
567 -274.0636 122.0210
568 -285.3170 92.7051
569 -293.4443 62.3735
570 -298.3566 31.3585
571 -300.0000 0.0000
572 -298.3566 -31.3585
573 -293.4443 -62.3735
574 -285.3170 -92.7051
575 -274.0636 -122.0210
576 -259.8076 -150.0000
577 -242.7051 -176.3356
578 -222.9434 -200.7392
579 -200.7392 -222.9434
580 -176.3356 -242.7051
581 -150.0000 -259.8076
582 -122.0210 -274.0636
583 -92.7051 -285.3170
584 -62.3735 -293.4443
585 -31.3585 -298.3566
586 -0.0000 -300.0000
587 31.3585 -298.3566
588 62.3735 -293.4443
589 92.7051 -285.3170
590 122.0210 -274.0636
591 150.0000 -259.8076
592 176.3356 -242.7051
593 200.7392 -222.9434
594 222.9434 -200.7392
595 242.7051 -176.3356
596 259.8076 -150.0000
597 274.0636 -122.0210
598 285.3170 -92.7051
599 293.4443 -62.3735
600 298.3566 -31.3585
DEMAND_SECTION
1 10
2 30
3 30
4 10
5 10
6 30
7 30
8 10
9 10
10 30
11 30
12 10
13 10
14 30
15 30
16 10
17 10
18 30
19 30
20 10
21 10
22 30
23 30
24 10
25 10
26 30
27 30
28 10
29 10
30 30
31 30
32 10
33 10
34 30
35 30
36 10
37 10
38 30
39 30
40 10
41 10
42 30
43 30
44 10
45 10
46 30
47 30
48 10
49 10
50 30
51 30
52 10
53 10
54 30
55 30
56 10
57 10
58 30
59 30
60 10
61 10
62 30
63 30
64 10
65 10
66 30
67 30
68 10
69 10
70 30
71 30
72 10
73 10
74 30
75 30
76 10
77 10
78 30
79 30
80 10
81 10
82 30
83 30
84 10
85 10
86 30
87 30
88 10
89 10
90 30
91 30
92 10
93 10
94 30
95 30
96 10
97 10
98 30
99 30
100 10
101 10
102 30
103 30
104 10
105 10
106 30
107 30
108 10
109 10
110 30
111 30
112 10
113 10
114 30
115 30
116 10
117 10
118 30
119 30
120 10
121 10
122 30
123 30
124 10
125 10
126 30
127 30
128 10
129 10
130 30
131 30
132 10
133 10
134 30
135 30
136 10
137 10
138 30
139 30
140 10
141 10
142 30
143 30
144 10
145 10
146 30
147 30
148 10
149 10
150 30
151 30
152 10
153 10
154 30
155 30
156 10
157 10
158 30
159 30
160 10
161 10
162 30
163 30
164 10
165 10
166 30
167 30
168 10
169 10
170 30
171 30
172 10
173 10
174 30
175 30
176 10
177 10
178 30
179 30
180 10
181 10
182 30
183 30
184 10
185 10
186 30
187 30
188 10
189 10
190 30
191 30
192 10
193 10
194 30
195 30
196 10
197 10
198 30
199 30
200 10
201 10
202 30
203 30
204 10
205 10
206 30
207 30
208 10
209 10
210 30
211 30
212 10
213 10
214 30
215 30
216 10
217 10
218 30
219 30
220 10
221 10
222 30
223 30
224 10
225 10
226 30
227 30
228 10
229 10
230 30
231 30
232 10
233 10
234 30
235 30
236 10
237 10
238 30
239 30
240 10
241 10
242 30
243 30
244 10
245 10
246 30
247 30
248 10
249 10
250 30
251 30
252 10
253 10
254 30
255 30
256 10
257 10
258 30
259 30
260 10
261 10
262 30
263 30
264 10
265 10
266 30
267 30
268 10
269 10
270 30
271 30
272 10
273 10
274 30
275 30
276 10
277 10
278 30
279 30
280 10
281 10
282 30
283 30
284 10
285 10
286 30
287 30
288 10
289 10
290 30
291 30
292 10
293 10
294 30
295 30
296 10
297 10
298 30
299 30
300 10
301 10
302 30
303 30
304 10
305 10
306 30
307 30
308 10
309 10
310 30
311 30
312 10
313 10
314 30
315 30
316 10
317 10
318 30
319 30
320 10
321 10
322 30
323 30
324 10
325 10
326 30
327 30
328 10
329 10
330 30
331 30
332 10
333 10
334 30
335 30
336 10
337 10
338 30
339 30
340 10
341 10
342 30
343 30
344 10
345 10
346 30
347 30
348 10
349 10
350 30
351 30
352 10
353 10
354 30
355 30
356 10
357 10
358 30
359 30
360 10
361 10
362 30
363 30
364 10
365 10
366 30
367 30
368 10
369 10
370 30
371 30
372 10
373 10
374 30
375 30
376 10
377 10
378 30
379 30
380 10
381 10
382 30
383 30
384 10
385 10
386 30
387 30
388 10
389 10
390 30
391 30
392 10
393 10
394 30
395 30
396 10
397 10
398 30
399 30
400 10
401 10
402 30
403 30
404 10
405 10
406 30
407 30
408 10
409 10
410 30
411 30
412 10
413 10
414 30
415 30
416 10
417 10
418 30
419 30
420 10
421 10
422 30
423 30
424 10
425 10
426 30
427 30
428 10
429 10
430 30
431 30
432 10
433 10
434 30
435 30
436 10
437 10
438 30
439 30
440 10
441 10
442 30
443 30
444 10
445 10
446 30
447 30
448 10
449 10
450 30
451 30
452 10
453 10
454 30
455 30
456 10
457 10
458 30
459 30
460 10
461 10
462 30
463 30
464 10
465 10
466 30
467 30
468 10
469 10
470 30
471 30
472 10
473 10
474 30
475 30
476 10
477 10
478 30
479 30
480 10
481 10
482 30
483 30
484 10
485 10
486 30
487 30
488 10
489 10
490 30
491 30
492 10
493 10
494 30
495 30
496 10
497 10
498 30
499 30
500 10
501 10
502 30
503 30
504 10
505 10
506 30
507 30
508 10
509 10
510 30
511 30
512 10
513 10
514 30
515 30
516 10
517 10
518 30
519 30
520 10
521 10
522 30
523 30
524 10
525 10
526 30
527 30
528 10
529 10
530 30
531 30
532 10
533 10
534 30
535 30
536 10
537 10
538 30
539 30
540 10
541 10
542 30
543 30
544 10
545 10
546 30
547 30
548 10
549 10
550 30
551 30
552 10
553 10
554 30
555 30
556 10
557 10
558 30
559 30
560 10
561 10
562 30
563 30
564 10
565 10
566 30
567 30
568 10
569 10
570 30
571 30
572 10
573 10
574 30
575 30
576 10
577 10
578 30
579 30
580 10
581 10
582 30
583 30
584 10
585 10
586 30
587 30
588 10
589 10
590 30
591 30
592 10
593 10
594 30
595 30
596 10
597 10
598 30
599 30
600 10
DEPOT_SECTION
0.0000 0.0000
-1
EOF
